num_nodes = 7;
num_processes = 10;

process_memory = [23, 41, 31, 72, 96, 80, 7, 81, 99, 82];
node_memory = [100, 100, 51, 80, 95, 211, 170];

process_load = [20, 50, 20, 25, 90, 80, 70, 81, 40, 35];
node_cpu = [100, 100, 75, 80, 95, 100, 70];


topology = array2d(NODE, NODE, 
[true, false, true, true, false, true, false, false, false, false, true, true,
 true, true, false, true, false, true, false, true, true, false, false, false,
 true, true, true, false, false, true, true, true, false, true, true, false,
 true, true, true, false, true, false, false, true, true, false, false, true,
 true]
);

process_link = array2d(PROCESS, PROCESS, 

[false, false, false, false, true, false, false, false, false, true, false, true, true, false, false, false, true, true, false, false, true, true, false, false, true, true, false, false, false, true, false, false, true, true, true, false, true, false, true, false, true, false, false, false, false, true, true, false, false, false, false, false, false, false, true, true, true, true, false, false, false, false, true, true, true, true, true, true, false, true, true, true, false, true, false, false, true, true, false, true, true, false, false, false, false, true, true, false, false, false, true, false, true, true, false, false, false, true, false, false
]);
